120
150
36
48
48
20
83
61
93
48
38
20
51
41
44
67
48
27
75
59
90
71
37
42
38
28
86
41
88
44
28
48
51
57
54
57
41
28
39
35
76
100
28
24
62
62
38
85
57
96
29
38
28
35
89
57
35
35
48
29
48
41
82
29
44
51
20
35
100
50
28
80
44
44
62
61
86
51
35
35
29
61
93
62
29
59
67
83
76
89
80
29
41
93
29
89
83
62
77
75
77
95
26
29
76
76
88
89
36
33
31
86
32
80
38
57
93
96
61
89
76
80
